p cnf 491 2579
1 0
-2 0
-3 0
-4 0
-5 0
-6 0
-7 0
-8 0
57 9 0
-57 -9 0
-9 -393 0
-9 -394 0
-9 -395 0
-10 393 0
-10 -394 0
-10 -395 0
-11 -393 0
-11 394 0
-11 -395 0
-12 393 0
-12 394 0
-12 -395 0
-13 -393 0
-13 -394 0
-13 395 0
-14 393 0
-14 -394 0
-14 395 0
-15 -393 0
-15 394 0
-15 395 0
-16 393 0
-16 394 0
-16 395 0
-9 1 17 0
-9 1 65 0
-9 17 65 0
-10 2 18 0
-10 2 66 0
-10 18 66 0
-11 3 19 0
-11 3 67 0
-11 19 67 0
-12 4 20 0
-12 4 68 0
-12 20 68 0
-13 5 21 0
-13 5 69 0
-13 21 69 0
-14 6 22 0
-14 6 70 0
-14 22 70 0
-15 7 23 0
-15 7 71 0
-15 23 71 0
-16 8 24 0
-16 8 72 0
-16 24 72 0
-9 -1 -17 -65 0
-10 -2 -18 -66 0
-11 -3 -19 -67 0
-12 -4 -20 -68 0
-13 -5 -21 -69 0
-14 -6 -22 -70 0
-15 -7 -23 -71 0
-16 -8 -24 -72 0
-17 -396 0
-17 -397 0
-17 -398 0
-18 396 0
-18 -397 0
-18 -398 0
-19 -396 0
-19 397 0
-19 -398 0
-20 396 0
-20 397 0
-20 -398 0
-21 -396 0
-21 -397 0
-21 398 0
-22 396 0
-22 -397 0
-22 398 0
-23 -396 0
-23 397 0
-23 398 0
-24 396 0
-24 397 0
-24 398 0
-17 9 25 0
-17 9 73 0
-17 25 73 0
-18 10 26 0
-18 10 74 0
-18 26 74 0
-19 11 27 0
-19 11 75 0
-19 27 75 0
-20 12 28 0
-20 12 76 0
-20 28 76 0
-21 13 29 0
-21 13 77 0
-21 29 77 0
-22 14 30 0
-22 14 78 0
-22 30 78 0
-23 15 31 0
-23 15 79 0
-23 31 79 0
-24 16 32 0
-24 16 80 0
-24 32 80 0
-17 -9 -25 -73 0
-18 -10 -26 -74 0
-19 -11 -27 -75 0
-20 -12 -28 -76 0
-21 -13 -29 -77 0
-22 -14 -30 -78 0
-23 -15 -31 -79 0
-24 -16 -32 -80 0
31 0
-25 0
-26 0
-27 0
-28 0
-29 0
-30 0
-32 0
23 39 87 0
-23 -39 0
-23 -87 0
-39 -87 0
-33 -399 0
-33 -400 0
-33 -401 0
-34 399 0
-34 -400 0
-34 -401 0
-35 -399 0
-35 400 0
-35 -401 0
-36 399 0
-36 400 0
-36 -401 0
-37 -399 0
-37 -400 0
-37 401 0
-38 399 0
-38 -400 0
-38 401 0
-39 -399 0
-39 400 0
-39 401 0
-40 399 0
-40 400 0
-40 401 0
-33 25 41 0
-33 25 89 0
-33 41 89 0
-34 26 42 0
-34 26 90 0
-34 42 90 0
-35 27 43 0
-35 27 91 0
-35 43 91 0
-36 28 44 0
-36 28 92 0
-36 44 92 0
-37 29 45 0
-37 29 93 0
-37 45 93 0
-38 30 46 0
-38 30 94 0
-38 46 94 0
-39 31 47 0
-39 31 95 0
-39 47 95 0
-40 32 48 0
-40 32 96 0
-40 48 96 0
-33 -25 -41 -89 0
-34 -26 -42 -90 0
-35 -27 -43 -91 0
-36 -28 -44 -92 0
-37 -29 -45 -93 0
-38 -30 -46 -94 0
-39 -31 -47 -95 0
-40 -32 -48 -96 0
-41 -402 0
-41 -403 0
-41 -404 0
-42 402 0
-42 -403 0
-42 -404 0
-43 -402 0
-43 403 0
-43 -404 0
-44 402 0
-44 403 0
-44 -404 0
-45 -402 0
-45 -403 0
-45 404 0
-46 402 0
-46 -403 0
-46 404 0
-47 -402 0
-47 403 0
-47 404 0
-48 402 0
-48 403 0
-48 404 0
-41 33 49 0
-41 33 97 0
-41 49 97 0
-42 34 50 0
-42 34 98 0
-42 50 98 0
-43 35 51 0
-43 35 99 0
-43 51 99 0
-44 36 52 0
-44 36 100 0
-44 52 100 0
-45 37 53 0
-45 37 101 0
-45 53 101 0
-46 38 54 0
-46 38 102 0
-46 54 102 0
-47 39 55 0
-47 39 103 0
-47 55 103 0
-48 40 56 0
-48 40 104 0
-48 56 104 0
-41 -33 -49 -97 0
-42 -34 -50 -98 0
-43 -35 -51 -99 0
-44 -36 -52 -100 0
-45 -37 -53 -101 0
-46 -38 -54 -102 0
-47 -39 -55 -103 0
-48 -40 -56 -104 0
-49 -405 0
-49 -406 0
-49 -407 0
-50 405 0
-50 -406 0
-50 -407 0
-51 -405 0
-51 406 0
-51 -407 0
-52 405 0
-52 406 0
-52 -407 0
-53 -405 0
-53 -406 0
-53 407 0
-54 405 0
-54 -406 0
-54 407 0
-55 -405 0
-55 406 0
-55 407 0
-56 405 0
-56 406 0
-56 407 0
-49 105 0
-49 41 0
-50 106 0
-50 42 0
-51 107 0
-51 43 0
-52 108 0
-52 44 0
-53 109 0
-53 45 0
-54 110 0
-54 46 0
-55 111 0
-55 47 0
-56 112 0
-56 48 0
-57 -408 0
-57 -409 0
-57 -410 0
-58 408 0
-58 -409 0
-58 -410 0
-59 -408 0
-59 409 0
-59 -410 0
-60 408 0
-60 409 0
-60 -410 0
-61 -408 0
-61 -409 0
-61 410 0
-62 408 0
-62 -409 0
-62 410 0
-63 -408 0
-63 409 0
-63 410 0
-64 408 0
-64 409 0
-64 410 0
-57 113 65 0
-57 113 1 0
-57 65 1 0
-58 114 66 0
-58 114 2 0
-58 66 2 0
-59 115 67 0
-59 115 3 0
-59 67 3 0
-60 116 68 0
-60 116 4 0
-60 68 4 0
-61 117 69 0
-61 117 5 0
-61 69 5 0
-62 118 70 0
-62 118 6 0
-62 70 6 0
-63 119 71 0
-63 119 7 0
-63 71 7 0
-64 120 72 0
-64 120 8 0
-64 72 8 0
-57 -113 -65 -1 0
-58 -114 -66 -2 0
-59 -115 -67 -3 0
-60 -116 -68 -4 0
-61 -117 -69 -5 0
-62 -118 -70 -6 0
-63 -119 -71 -7 0
-64 -120 -72 -8 0
71 0
-65 0
-66 0
-67 0
-68 0
-69 0
-70 0
-72 0
127 79 15 63 0
-127 -79 0
-127 -15 0
-127 -63 0
-79 -15 0
-79 -63 0
-15 -63 0
77 0
-73 0
-74 0
-75 0
-76 0
-78 0
-79 0
-80 0
133 85 21 69 0
-133 -85 0
-133 -21 0
-133 -69 0
-85 -21 0
-85 -69 0
-21 -69 0
-81 -411 0
-81 -412 0
-81 -413 0
-82 411 0
-82 -412 0
-82 -413 0
-83 -411 0
-83 412 0
-83 -413 0
-84 411 0
-84 412 0
-84 -413 0
-85 -411 0
-85 -412 0
-85 413 0
-86 411 0
-86 -412 0
-86 413 0
-87 -411 0
-87 412 0
-87 413 0
-88 411 0
-88 412 0
-88 413 0
-81 137 89 25 0
-81 137 89 73 0
-81 137 25 73 0
-81 89 25 73 0
-82 138 90 26 0
-82 138 90 74 0
-82 138 26 74 0
-82 90 26 74 0
-83 139 91 27 0
-83 139 91 75 0
-83 139 27 75 0
-83 91 27 75 0
-84 140 92 28 0
-84 140 92 76 0
-84 140 28 76 0
-84 92 28 76 0
-85 141 93 29 0
-85 141 93 77 0
-85 141 29 77 0
-85 93 29 77 0
-86 142 94 30 0
-86 142 94 78 0
-86 142 30 78 0
-86 94 30 78 0
-87 143 95 31 0
-87 143 95 79 0
-87 143 31 79 0
-87 95 31 79 0
-88 144 96 32 0
-88 144 96 80 0
-88 144 32 80 0
-88 96 32 80 0
-81 -137 -89 -25 0
-81 -137 -89 -73 0
-81 -137 -25 -73 0
-81 -89 -25 -73 0
-82 -138 -90 -26 0
-82 -138 -90 -74 0
-82 -138 -26 -74 0
-82 -90 -26 -74 0
-83 -139 -91 -27 0
-83 -139 -91 -75 0
-83 -139 -27 -75 0
-83 -91 -27 -75 0
-84 -140 -92 -28 0
-84 -140 -92 -76 0
-84 -140 -28 -76 0
-84 -92 -28 -76 0
-85 -141 -93 -29 0
-85 -141 -93 -77 0
-85 -141 -29 -77 0
-85 -93 -29 -77 0
-86 -142 -94 -30 0
-86 -142 -94 -78 0
-86 -142 -30 -78 0
-86 -94 -30 -78 0
-87 -143 -95 -31 0
-87 -143 -95 -79 0
-87 -143 -31 -79 0
-87 -95 -31 -79 0
-88 -144 -96 -32 0
-88 -144 -96 -80 0
-88 -144 -32 -80 0
-88 -96 -32 -80 0
-89 -414 0
-89 -415 0
-89 -416 0
-90 414 0
-90 -415 0
-90 -416 0
-91 -414 0
-91 415 0
-91 -416 0
-92 414 0
-92 415 0
-92 -416 0
-93 -414 0
-93 -415 0
-93 416 0
-94 414 0
-94 -415 0
-94 416 0
-95 -414 0
-95 415 0
-95 416 0
-96 414 0
-96 415 0
-96 416 0
-89 145 97 33 0
-89 145 97 81 0
-89 145 33 81 0
-89 97 33 81 0
-90 146 98 34 0
-90 146 98 82 0
-90 146 34 82 0
-90 98 34 82 0
-91 147 99 35 0
-91 147 99 83 0
-91 147 35 83 0
-91 99 35 83 0
-92 148 100 36 0
-92 148 100 84 0
-92 148 36 84 0
-92 100 36 84 0
-93 149 101 37 0
-93 149 101 85 0
-93 149 37 85 0
-93 101 37 85 0
-94 150 102 38 0
-94 150 102 86 0
-94 150 38 86 0
-94 102 38 86 0
-95 151 103 39 0
-95 151 103 87 0
-95 151 39 87 0
-95 103 39 87 0
-96 152 104 40 0
-96 152 104 88 0
-96 152 40 88 0
-96 104 40 88 0
-89 -145 -97 -33 0
-89 -145 -97 -81 0
-89 -145 -33 -81 0
-89 -97 -33 -81 0
-90 -146 -98 -34 0
-90 -146 -98 -82 0
-90 -146 -34 -82 0
-90 -98 -34 -82 0
-91 -147 -99 -35 0
-91 -147 -99 -83 0
-91 -147 -35 -83 0
-91 -99 -35 -83 0
-92 -148 -100 -36 0
-92 -148 -100 -84 0
-92 -148 -36 -84 0
-92 -100 -36 -84 0
-93 -149 -101 -37 0
-93 -149 -101 -85 0
-93 -149 -37 -85 0
-93 -101 -37 -85 0
-94 -150 -102 -38 0
-94 -150 -102 -86 0
-94 -150 -38 -86 0
-94 -102 -38 -86 0
-95 -151 -103 -39 0
-95 -151 -103 -87 0
-95 -151 -39 -87 0
-95 -103 -39 -87 0
-96 -152 -104 -40 0
-96 -152 -104 -88 0
-96 -152 -40 -88 0
-96 -104 -40 -88 0
100 0
-97 0
-98 0
-99 0
-101 0
-102 0
-103 0
-104 0
156 108 44 92 0
-156 -108 0
-156 -44 0
-156 -92 0
-108 -44 0
-108 -92 0
-44 -92 0
107 0
-105 0
-106 0
-108 0
-109 0
-110 0
-111 0
-112 0
163 99 51 0
-163 -99 0
-163 -51 0
-99 -51 0
-113 -417 0
-113 -418 0
-113 -419 0
-114 417 0
-114 -418 0
-114 -419 0
-115 -417 0
-115 418 0
-115 -419 0
-116 417 0
-116 418 0
-116 -419 0
-117 -417 0
-117 -418 0
-117 419 0
-118 417 0
-118 -418 0
-118 419 0
-119 -417 0
-119 418 0
-119 419 0
-120 417 0
-120 418 0
-120 419 0
-113 169 121 0
-113 169 57 0
-113 121 57 0
-114 170 122 0
-114 170 58 0
-114 122 58 0
-115 171 123 0
-115 171 59 0
-115 123 59 0
-116 172 124 0
-116 172 60 0
-116 124 60 0
-117 173 125 0
-117 173 61 0
-117 125 61 0
-118 174 126 0
-118 174 62 0
-118 126 62 0
-119 175 127 0
-119 175 63 0
-119 127 63 0
-120 176 128 0
-120 176 64 0
-120 128 64 0
-113 -169 -121 -57 0
-114 -170 -122 -58 0
-115 -171 -123 -59 0
-116 -172 -124 -60 0
-117 -173 -125 -61 0
-118 -174 -126 -62 0
-119 -175 -127 -63 0
-120 -176 -128 -64 0
-121 -420 0
-121 -421 0
-121 -422 0
-122 420 0
-122 -421 0
-122 -422 0
-123 -420 0
-123 421 0
-123 -422 0
-124 420 0
-124 421 0
-124 -422 0
-125 -420 0
-125 -421 0
-125 422 0
-126 420 0
-126 -421 0
-126 422 0
-127 -420 0
-127 421 0
-127 422 0
-128 420 0
-128 421 0
-128 422 0
-121 177 129 65 0
-121 177 129 113 0
-121 177 65 113 0
-121 129 65 113 0
-122 178 130 66 0
-122 178 130 114 0
-122 178 66 114 0
-122 130 66 114 0
-123 179 131 67 0
-123 179 131 115 0
-123 179 67 115 0
-123 131 67 115 0
-124 180 132 68 0
-124 180 132 116 0
-124 180 68 116 0
-124 132 68 116 0
-125 181 133 69 0
-125 181 133 117 0
-125 181 69 117 0
-125 133 69 117 0
-126 182 134 70 0
-126 182 134 118 0
-126 182 70 118 0
-126 134 70 118 0
-127 183 135 71 0
-127 183 135 119 0
-127 183 71 119 0
-127 135 71 119 0
-128 184 136 72 0
-128 184 136 120 0
-128 184 72 120 0
-128 136 72 120 0
-121 -177 -129 -65 0
-121 -177 -129 -113 0
-121 -177 -65 -113 0
-121 -129 -65 -113 0
-122 -178 -130 -66 0
-122 -178 -130 -114 0
-122 -178 -66 -114 0
-122 -130 -66 -114 0
-123 -179 -131 -67 0
-123 -179 -131 -115 0
-123 -179 -67 -115 0
-123 -131 -67 -115 0
-124 -180 -132 -68 0
-124 -180 -132 -116 0
-124 -180 -68 -116 0
-124 -132 -68 -116 0
-125 -181 -133 -69 0
-125 -181 -133 -117 0
-125 -181 -69 -117 0
-125 -133 -69 -117 0
-126 -182 -134 -70 0
-126 -182 -134 -118 0
-126 -182 -70 -118 0
-126 -134 -70 -118 0
-127 -183 -135 -71 0
-127 -183 -135 -119 0
-127 -183 -71 -119 0
-127 -135 -71 -119 0
-128 -184 -136 -72 0
-128 -184 -136 -120 0
-128 -184 -72 -120 0
-128 -136 -72 -120 0
134 0
-129 0
-130 0
-131 0
-132 0
-133 0
-135 0
-136 0
190 142 78 126 0
-190 -142 0
-190 -78 0
-190 -126 0
-142 -78 0
-142 -126 0
-78 -126 0
141 0
-137 0
-138 0
-139 0
-140 0
-142 0
-143 0
-144 0
197 149 85 133 0
-197 -149 0
-197 -85 0
-197 -133 0
-149 -85 0
-149 -133 0
-85 -133 0
-145 -423 0
-145 -424 0
-145 -425 0
-146 423 0
-146 -424 0
-146 -425 0
-147 -423 0
-147 424 0
-147 -425 0
-148 423 0
-148 424 0
-148 -425 0
-149 -423 0
-149 -424 0
-149 425 0
-150 423 0
-150 -424 0
-150 425 0
-151 -423 0
-151 424 0
-151 425 0
-152 423 0
-152 424 0
-152 425 0
-145 201 153 89 0
-145 201 153 137 0
-145 201 89 137 0
-145 153 89 137 0
-146 202 154 90 0
-146 202 154 138 0
-146 202 90 138 0
-146 154 90 138 0
-147 203 155 91 0
-147 203 155 139 0
-147 203 91 139 0
-147 155 91 139 0
-148 204 156 92 0
-148 204 156 140 0
-148 204 92 140 0
-148 156 92 140 0
-149 205 157 93 0
-149 205 157 141 0
-149 205 93 141 0
-149 157 93 141 0
-150 206 158 94 0
-150 206 158 142 0
-150 206 94 142 0
-150 158 94 142 0
-151 207 159 95 0
-151 207 159 143 0
-151 207 95 143 0
-151 159 95 143 0
-152 208 160 96 0
-152 208 160 144 0
-152 208 96 144 0
-152 160 96 144 0
-145 -201 -153 -89 0
-145 -201 -153 -137 0
-145 -201 -89 -137 0
-145 -153 -89 -137 0
-146 -202 -154 -90 0
-146 -202 -154 -138 0
-146 -202 -90 -138 0
-146 -154 -90 -138 0
-147 -203 -155 -91 0
-147 -203 -155 -139 0
-147 -203 -91 -139 0
-147 -155 -91 -139 0
-148 -204 -156 -92 0
-148 -204 -156 -140 0
-148 -204 -92 -140 0
-148 -156 -92 -140 0
-149 -205 -157 -93 0
-149 -205 -157 -141 0
-149 -205 -93 -141 0
-149 -157 -93 -141 0
-150 -206 -158 -94 0
-150 -206 -158 -142 0
-150 -206 -94 -142 0
-150 -158 -94 -142 0
-151 -207 -159 -95 0
-151 -207 -159 -143 0
-151 -207 -95 -143 0
-151 -159 -95 -143 0
-152 -208 -160 -96 0
-152 -208 -160 -144 0
-152 -208 -96 -144 0
-152 -160 -96 -144 0
-153 -426 0
-153 -427 0
-153 -428 0
-154 426 0
-154 -427 0
-154 -428 0
-155 -426 0
-155 427 0
-155 -428 0
-156 426 0
-156 427 0
-156 -428 0
-157 -426 0
-157 -427 0
-157 428 0
-158 426 0
-158 -427 0
-158 428 0
-159 -426 0
-159 427 0
-159 428 0
-160 426 0
-160 427 0
-160 428 0
-153 209 161 97 0
-153 209 161 145 0
-153 209 97 145 0
-153 161 97 145 0
-154 210 162 98 0
-154 210 162 146 0
-154 210 98 146 0
-154 162 98 146 0
-155 211 163 99 0
-155 211 163 147 0
-155 211 99 147 0
-155 163 99 147 0
-156 212 164 100 0
-156 212 164 148 0
-156 212 100 148 0
-156 164 100 148 0
-157 213 165 101 0
-157 213 165 149 0
-157 213 101 149 0
-157 165 101 149 0
-158 214 166 102 0
-158 214 166 150 0
-158 214 102 150 0
-158 166 102 150 0
-159 215 167 103 0
-159 215 167 151 0
-159 215 103 151 0
-159 167 103 151 0
-160 216 168 104 0
-160 216 168 152 0
-160 216 104 152 0
-160 168 104 152 0
-153 -209 -161 -97 0
-153 -209 -161 -145 0
-153 -209 -97 -145 0
-153 -161 -97 -145 0
-154 -210 -162 -98 0
-154 -210 -162 -146 0
-154 -210 -98 -146 0
-154 -162 -98 -146 0
-155 -211 -163 -99 0
-155 -211 -163 -147 0
-155 -211 -99 -147 0
-155 -163 -99 -147 0
-156 -212 -164 -100 0
-156 -212 -164 -148 0
-156 -212 -100 -148 0
-156 -164 -100 -148 0
-157 -213 -165 -101 0
-157 -213 -165 -149 0
-157 -213 -101 -149 0
-157 -165 -101 -149 0
-158 -214 -166 -102 0
-158 -214 -166 -150 0
-158 -214 -102 -150 0
-158 -166 -102 -150 0
-159 -215 -167 -103 0
-159 -215 -167 -151 0
-159 -215 -103 -151 0
-159 -167 -103 -151 0
-160 -216 -168 -104 0
-160 -216 -168 -152 0
-160 -216 -104 -152 0
-160 -168 -104 -152 0
162 0
-161 0
-163 0
-164 0
-165 0
-166 0
-167 0
-168 0
218 154 106 0
-218 -154 0
-218 -106 0
-154 -106 0
-169 -429 0
-169 -430 0
-169 -431 0
-170 429 0
-170 -430 0
-170 -431 0
-171 -429 0
-171 430 0
-171 -431 0
-172 429 0
-172 430 0
-172 -431 0
-173 -429 0
-173 -430 0
-173 431 0
-174 429 0
-174 -430 0
-174 431 0
-175 -429 0
-175 430 0
-175 431 0
-176 429 0
-176 430 0
-176 431 0
-169 225 177 0
-169 225 113 0
-169 177 113 0
-170 226 178 0
-170 226 114 0
-170 178 114 0
-171 227 179 0
-171 227 115 0
-171 179 115 0
-172 228 180 0
-172 228 116 0
-172 180 116 0
-173 229 181 0
-173 229 117 0
-173 181 117 0
-174 230 182 0
-174 230 118 0
-174 182 118 0
-175 231 183 0
-175 231 119 0
-175 183 119 0
-176 232 184 0
-176 232 120 0
-176 184 120 0
-169 -225 -177 -113 0
-170 -226 -178 -114 0
-171 -227 -179 -115 0
-172 -228 -180 -116 0
-173 -229 -181 -117 0
-174 -230 -182 -118 0
-175 -231 -183 -119 0
-176 -232 -184 -120 0
182 0
-177 0
-178 0
-179 0
-180 0
-181 0
-183 0
-184 0
238 190 126 174 0
-238 -190 0
-238 -126 0
-238 -174 0
-190 -126 0
-190 -174 0
-126 -174 0
185 0
-186 0
-187 0
-188 0
-189 0
-190 0
-191 0
-192 0
241 193 129 177 0
-241 -193 0
-241 -129 0
-241 -177 0
-193 -129 0
-193 -177 0
-129 -177 0
195 0
-193 0
-194 0
-196 0
-197 0
-198 0
-199 0
-200 0
251 203 139 187 0
-251 -203 0
-251 -139 0
-251 -187 0
-203 -139 0
-203 -187 0
-139 -187 0
-201 -432 0
-201 -433 0
-201 -434 0
-202 432 0
-202 -433 0
-202 -434 0
-203 -432 0
-203 433 0
-203 -434 0
-204 432 0
-204 433 0
-204 -434 0
-205 -432 0
-205 -433 0
-205 434 0
-206 432 0
-206 -433 0
-206 434 0
-207 -432 0
-207 433 0
-207 434 0
-208 432 0
-208 433 0
-208 434 0
-201 257 209 145 0
-201 257 209 193 0
-201 257 145 193 0
-201 209 145 193 0
-202 258 210 146 0
-202 258 210 194 0
-202 258 146 194 0
-202 210 146 194 0
-203 259 211 147 0
-203 259 211 195 0
-203 259 147 195 0
-203 211 147 195 0
-204 260 212 148 0
-204 260 212 196 0
-204 260 148 196 0
-204 212 148 196 0
-205 261 213 149 0
-205 261 213 197 0
-205 261 149 197 0
-205 213 149 197 0
-206 262 214 150 0
-206 262 214 198 0
-206 262 150 198 0
-206 214 150 198 0
-207 263 215 151 0
-207 263 215 199 0
-207 263 151 199 0
-207 215 151 199 0
-208 264 216 152 0
-208 264 216 200 0
-208 264 152 200 0
-208 216 152 200 0
-201 -257 -209 -145 0
-201 -257 -209 -193 0
-201 -257 -145 -193 0
-201 -209 -145 -193 0
-202 -258 -210 -146 0
-202 -258 -210 -194 0
-202 -258 -146 -194 0
-202 -210 -146 -194 0
-203 -259 -211 -147 0
-203 -259 -211 -195 0
-203 -259 -147 -195 0
-203 -211 -147 -195 0
-204 -260 -212 -148 0
-204 -260 -212 -196 0
-204 -260 -148 -196 0
-204 -212 -148 -196 0
-205 -261 -213 -149 0
-205 -261 -213 -197 0
-205 -261 -149 -197 0
-205 -213 -149 -197 0
-206 -262 -214 -150 0
-206 -262 -214 -198 0
-206 -262 -150 -198 0
-206 -214 -150 -198 0
-207 -263 -215 -151 0
-207 -263 -215 -199 0
-207 -263 -151 -199 0
-207 -215 -151 -199 0
-208 -264 -216 -152 0
-208 -264 -216 -200 0
-208 -264 -152 -200 0
-208 -216 -152 -200 0
-209 -435 0
-209 -436 0
-209 -437 0
-210 435 0
-210 -436 0
-210 -437 0
-211 -435 0
-211 436 0
-211 -437 0
-212 435 0
-212 436 0
-212 -437 0
-213 -435 0
-213 -436 0
-213 437 0
-214 435 0
-214 -436 0
-214 437 0
-215 -435 0
-215 436 0
-215 437 0
-216 435 0
-216 436 0
-216 437 0
-209 265 217 153 0
-209 265 217 201 0
-209 265 153 201 0
-209 217 153 201 0
-210 266 218 154 0
-210 266 218 202 0
-210 266 154 202 0
-210 218 154 202 0
-211 267 219 155 0
-211 267 219 203 0
-211 267 155 203 0
-211 219 155 203 0
-212 268 220 156 0
-212 268 220 204 0
-212 268 156 204 0
-212 220 156 204 0
-213 269 221 157 0
-213 269 221 205 0
-213 269 157 205 0
-213 221 157 205 0
-214 270 222 158 0
-214 270 222 206 0
-214 270 158 206 0
-214 222 158 206 0
-215 271 223 159 0
-215 271 223 207 0
-215 271 159 207 0
-215 223 159 207 0
-216 272 224 160 0
-216 272 224 208 0
-216 272 160 208 0
-216 224 160 208 0
-209 -265 -217 -153 0
-209 -265 -217 -201 0
-209 -265 -153 -201 0
-209 -217 -153 -201 0
-210 -266 -218 -154 0
-210 -266 -218 -202 0
-210 -266 -154 -202 0
-210 -218 -154 -202 0
-211 -267 -219 -155 0
-211 -267 -219 -203 0
-211 -267 -155 -203 0
-211 -219 -155 -203 0
-212 -268 -220 -156 0
-212 -268 -220 -204 0
-212 -268 -156 -204 0
-212 -220 -156 -204 0
-213 -269 -221 -157 0
-213 -269 -221 -205 0
-213 -269 -157 -205 0
-213 -221 -157 -205 0
-214 -270 -222 -158 0
-214 -270 -222 -206 0
-214 -270 -158 -206 0
-214 -222 -158 -206 0
-215 -271 -223 -159 0
-215 -271 -223 -207 0
-215 -271 -159 -207 0
-215 -223 -159 -207 0
-216 -272 -224 -160 0
-216 -272 -224 -208 0
-216 -272 -160 -208 0
-216 -224 -160 -208 0
-217 -438 0
-217 -439 0
-217 -440 0
-218 438 0
-218 -439 0
-218 -440 0
-219 -438 0
-219 439 0
-219 -440 0
-220 438 0
-220 439 0
-220 -440 0
-221 -438 0
-221 -439 0
-221 440 0
-222 438 0
-222 -439 0
-222 440 0
-223 -438 0
-223 439 0
-223 440 0
-224 438 0
-224 439 0
-224 440 0
-217 273 209 0
-217 273 161 0
-217 209 161 0
-218 274 210 0
-218 274 162 0
-218 210 162 0
-219 275 211 0
-219 275 163 0
-219 211 163 0
-220 276 212 0
-220 276 164 0
-220 212 164 0
-221 277 213 0
-221 277 165 0
-221 213 165 0
-222 278 214 0
-222 278 166 0
-222 214 166 0
-223 279 215 0
-223 279 167 0
-223 215 167 0
-224 280 216 0
-224 280 168 0
-224 216 168 0
-217 -273 -209 -161 0
-218 -274 -210 -162 0
-219 -275 -211 -163 0
-220 -276 -212 -164 0
-221 -277 -213 -165 0
-222 -278 -214 -166 0
-223 -279 -215 -167 0
-224 -280 -216 -168 0
-225 -441 0
-225 -442 0
-225 -443 0
-226 441 0
-226 -442 0
-226 -443 0
-227 -441 0
-227 442 0
-227 -443 0
-228 441 0
-228 442 0
-228 -443 0
-229 -441 0
-229 -442 0
-229 443 0
-230 441 0
-230 -442 0
-230 443 0
-231 -441 0
-231 442 0
-231 443 0
-232 441 0
-232 442 0
-232 443 0
-225 281 233 0
-225 281 169 0
-225 233 169 0
-226 282 234 0
-226 282 170 0
-226 234 170 0
-227 283 235 0
-227 283 171 0
-227 235 171 0
-228 284 236 0
-228 284 172 0
-228 236 172 0
-229 285 237 0
-229 285 173 0
-229 237 173 0
-230 286 238 0
-230 286 174 0
-230 238 174 0
-231 287 239 0
-231 287 175 0
-231 239 175 0
-232 288 240 0
-232 288 176 0
-232 240 176 0
-225 -281 -233 -169 0
-226 -282 -234 -170 0
-227 -283 -235 -171 0
-228 -284 -236 -172 0
-229 -285 -237 -173 0
-230 -286 -238 -174 0
-231 -287 -239 -175 0
-232 -288 -240 -176 0
-233 -444 0
-233 -445 0
-233 -446 0
-234 444 0
-234 -445 0
-234 -446 0
-235 -444 0
-235 445 0
-235 -446 0
-236 444 0
-236 445 0
-236 -446 0
-237 -444 0
-237 -445 0
-237 446 0
-238 444 0
-238 -445 0
-238 446 0
-239 -444 0
-239 445 0
-239 446 0
-240 444 0
-240 445 0
-240 446 0
-233 289 241 177 0
-233 289 241 225 0
-233 289 177 225 0
-233 241 177 225 0
-234 290 242 178 0
-234 290 242 226 0
-234 290 178 226 0
-234 242 178 226 0
-235 291 243 179 0
-235 291 243 227 0
-235 291 179 227 0
-235 243 179 227 0
-236 292 244 180 0
-236 292 244 228 0
-236 292 180 228 0
-236 244 180 228 0
-237 293 245 181 0
-237 293 245 229 0
-237 293 181 229 0
-237 245 181 229 0
-238 294 246 182 0
-238 294 246 230 0
-238 294 182 230 0
-238 246 182 230 0
-239 295 247 183 0
-239 295 247 231 0
-239 295 183 231 0
-239 247 183 231 0
-240 296 248 184 0
-240 296 248 232 0
-240 296 184 232 0
-240 248 184 232 0
-233 -289 -241 -177 0
-233 -289 -241 -225 0
-233 -289 -177 -225 0
-233 -241 -177 -225 0
-234 -290 -242 -178 0
-234 -290 -242 -226 0
-234 -290 -178 -226 0
-234 -242 -178 -226 0
-235 -291 -243 -179 0
-235 -291 -243 -227 0
-235 -291 -179 -227 0
-235 -243 -179 -227 0
-236 -292 -244 -180 0
-236 -292 -244 -228 0
-236 -292 -180 -228 0
-236 -244 -180 -228 0
-237 -293 -245 -181 0
-237 -293 -245 -229 0
-237 -293 -181 -229 0
-237 -245 -181 -229 0
-238 -294 -246 -182 0
-238 -294 -246 -230 0
-238 -294 -182 -230 0
-238 -246 -182 -230 0
-239 -295 -247 -183 0
-239 -295 -247 -231 0
-239 -295 -183 -231 0
-239 -247 -183 -231 0
-240 -296 -248 -184 0
-240 -296 -248 -232 0
-240 -296 -184 -232 0
-240 -248 -184 -232 0
-241 -447 0
-241 -448 0
-241 -449 0
-242 447 0
-242 -448 0
-242 -449 0
-243 -447 0
-243 448 0
-243 -449 0
-244 447 0
-244 448 0
-244 -449 0
-245 -447 0
-245 -448 0
-245 449 0
-246 447 0
-246 -448 0
-246 449 0
-247 -447 0
-247 448 0
-247 449 0
-248 447 0
-248 448 0
-248 449 0
-241 297 249 185 0
-241 297 249 233 0
-241 297 185 233 0
-241 249 185 233 0
-242 298 250 186 0
-242 298 250 234 0
-242 298 186 234 0
-242 250 186 234 0
-243 299 251 187 0
-243 299 251 235 0
-243 299 187 235 0
-243 251 187 235 0
-244 300 252 188 0
-244 300 252 236 0
-244 300 188 236 0
-244 252 188 236 0
-245 301 253 189 0
-245 301 253 237 0
-245 301 189 237 0
-245 253 189 237 0
-246 302 254 190 0
-246 302 254 238 0
-246 302 190 238 0
-246 254 190 238 0
-247 303 255 191 0
-247 303 255 239 0
-247 303 191 239 0
-247 255 191 239 0
-248 304 256 192 0
-248 304 256 240 0
-248 304 192 240 0
-248 256 192 240 0
-241 -297 -249 -185 0
-241 -297 -249 -233 0
-241 -297 -185 -233 0
-241 -249 -185 -233 0
-242 -298 -250 -186 0
-242 -298 -250 -234 0
-242 -298 -186 -234 0
-242 -250 -186 -234 0
-243 -299 -251 -187 0
-243 -299 -251 -235 0
-243 -299 -187 -235 0
-243 -251 -187 -235 0
-244 -300 -252 -188 0
-244 -300 -252 -236 0
-244 -300 -188 -236 0
-244 -252 -188 -236 0
-245 -301 -253 -189 0
-245 -301 -253 -237 0
-245 -301 -189 -237 0
-245 -253 -189 -237 0
-246 -302 -254 -190 0
-246 -302 -254 -238 0
-246 -302 -190 -238 0
-246 -254 -190 -238 0
-247 -303 -255 -191 0
-247 -303 -255 -239 0
-247 -303 -191 -239 0
-247 -255 -191 -239 0
-248 -304 -256 -192 0
-248 -304 -256 -240 0
-248 -304 -192 -240 0
-248 -256 -192 -240 0
252 0
-249 0
-250 0
-251 0
-253 0
-254 0
-255 0
-256 0
308 260 196 244 0
-308 -260 0
-308 -196 0
-308 -244 0
-260 -196 0
-260 -244 0
-196 -244 0
-257 -450 0
-257 -451 0
-257 -452 0
-258 450 0
-258 -451 0
-258 -452 0
-259 -450 0
-259 451 0
-259 -452 0
-260 450 0
-260 451 0
-260 -452 0
-261 -450 0
-261 -451 0
-261 452 0
-262 450 0
-262 -451 0
-262 452 0
-263 -450 0
-263 451 0
-263 452 0
-264 450 0
-264 451 0
-264 452 0
-257 313 265 201 0
-257 313 265 249 0
-257 313 201 249 0
-257 265 201 249 0
-258 314 266 202 0
-258 314 266 250 0
-258 314 202 250 0
-258 266 202 250 0
-259 315 267 203 0
-259 315 267 251 0
-259 315 203 251 0
-259 267 203 251 0
-260 316 268 204 0
-260 316 268 252 0
-260 316 204 252 0
-260 268 204 252 0
-261 317 269 205 0
-261 317 269 253 0
-261 317 205 253 0
-261 269 205 253 0
-262 318 270 206 0
-262 318 270 254 0
-262 318 206 254 0
-262 270 206 254 0
-263 319 271 207 0
-263 319 271 255 0
-263 319 207 255 0
-263 271 207 255 0
-264 320 272 208 0
-264 320 272 256 0
-264 320 208 256 0
-264 272 208 256 0
-257 -313 -265 -201 0
-257 -313 -265 -249 0
-257 -313 -201 -249 0
-257 -265 -201 -249 0
-258 -314 -266 -202 0
-258 -314 -266 -250 0
-258 -314 -202 -250 0
-258 -266 -202 -250 0
-259 -315 -267 -203 0
-259 -315 -267 -251 0
-259 -315 -203 -251 0
-259 -267 -203 -251 0
-260 -316 -268 -204 0
-260 -316 -268 -252 0
-260 -316 -204 -252 0
-260 -268 -204 -252 0
-261 -317 -269 -205 0
-261 -317 -269 -253 0
-261 -317 -205 -253 0
-261 -269 -205 -253 0
-262 -318 -270 -206 0
-262 -318 -270 -254 0
-262 -318 -206 -254 0
-262 -270 -206 -254 0
-263 -319 -271 -207 0
-263 -319 -271 -255 0
-263 -319 -207 -255 0
-263 -271 -207 -255 0
-264 -320 -272 -208 0
-264 -320 -272 -256 0
-264 -320 -208 -256 0
-264 -272 -208 -256 0
-265 -453 0
-265 -454 0
-265 -455 0
-266 453 0
-266 -454 0
-266 -455 0
-267 -453 0
-267 454 0
-267 -455 0
-268 453 0
-268 454 0
-268 -455 0
-269 -453 0
-269 -454 0
-269 455 0
-270 453 0
-270 -454 0
-270 455 0
-271 -453 0
-271 454 0
-271 455 0
-272 453 0
-272 454 0
-272 455 0
-265 321 273 209 0
-265 321 273 257 0
-265 321 209 257 0
-265 273 209 257 0
-266 322 274 210 0
-266 322 274 258 0
-266 322 210 258 0
-266 274 210 258 0
-267 323 275 211 0
-267 323 275 259 0
-267 323 211 259 0
-267 275 211 259 0
-268 324 276 212 0
-268 324 276 260 0
-268 324 212 260 0
-268 276 212 260 0
-269 325 277 213 0
-269 325 277 261 0
-269 325 213 261 0
-269 277 213 261 0
-270 326 278 214 0
-270 326 278 262 0
-270 326 214 262 0
-270 278 214 262 0
-271 327 279 215 0
-271 327 279 263 0
-271 327 215 263 0
-271 279 215 263 0
-272 328 280 216 0
-272 328 280 264 0
-272 328 216 264 0
-272 280 216 264 0
-265 -321 -273 -209 0
-265 -321 -273 -257 0
-265 -321 -209 -257 0
-265 -273 -209 -257 0
-266 -322 -274 -210 0
-266 -322 -274 -258 0
-266 -322 -210 -258 0
-266 -274 -210 -258 0
-267 -323 -275 -211 0
-267 -323 -275 -259 0
-267 -323 -211 -259 0
-267 -275 -211 -259 0
-268 -324 -276 -212 0
-268 -324 -276 -260 0
-268 -324 -212 -260 0
-268 -276 -212 -260 0
-269 -325 -277 -213 0
-269 -325 -277 -261 0
-269 -325 -213 -261 0
-269 -277 -213 -261 0
-270 -326 -278 -214 0
-270 -326 -278 -262 0
-270 -326 -214 -262 0
-270 -278 -214 -262 0
-271 -327 -279 -215 0
-271 -327 -279 -263 0
-271 -327 -215 -263 0
-271 -279 -215 -263 0
-272 -328 -280 -216 0
-272 -328 -280 -264 0
-272 -328 -216 -264 0
-272 -280 -216 -264 0
-273 -456 0
-273 -457 0
-273 -458 0
-274 456 0
-274 -457 0
-274 -458 0
-275 -456 0
-275 457 0
-275 -458 0
-276 456 0
-276 457 0
-276 -458 0
-277 -456 0
-277 -457 0
-277 458 0
-278 456 0
-278 -457 0
-278 458 0
-279 -456 0
-279 457 0
-279 458 0
-280 456 0
-280 457 0
-280 458 0
-273 329 265 0
-273 329 217 0
-273 265 217 0
-274 330 266 0
-274 330 218 0
-274 266 218 0
-275 331 267 0
-275 331 219 0
-275 267 219 0
-276 332 268 0
-276 332 220 0
-276 268 220 0
-277 333 269 0
-277 333 221 0
-277 269 221 0
-278 334 270 0
-278 334 222 0
-278 270 222 0
-279 335 271 0
-279 335 223 0
-279 271 223 0
-280 336 272 0
-280 336 224 0
-280 272 224 0
-273 -329 -265 -217 0
-274 -330 -266 -218 0
-275 -331 -267 -219 0
-276 -332 -268 -220 0
-277 -333 -269 -221 0
-278 -334 -270 -222 0
-279 -335 -271 -223 0
-280 -336 -272 -224 0
-281 -459 0
-281 -460 0
-281 -461 0
-282 459 0
-282 -460 0
-282 -461 0
-283 -459 0
-283 460 0
-283 -461 0
-284 459 0
-284 460 0
-284 -461 0
-285 -459 0
-285 -460 0
-285 461 0
-286 459 0
-286 -460 0
-286 461 0
-287 -459 0
-287 460 0
-287 461 0
-288 459 0
-288 460 0
-288 461 0
-281 337 289 0
-281 337 225 0
-281 289 225 0
-282 338 290 0
-282 338 226 0
-282 290 226 0
-283 339 291 0
-283 339 227 0
-283 291 227 0
-284 340 292 0
-284 340 228 0
-284 292 228 0
-285 341 293 0
-285 341 229 0
-285 293 229 0
-286 342 294 0
-286 342 230 0
-286 294 230 0
-287 343 295 0
-287 343 231 0
-287 295 231 0
-288 344 296 0
-288 344 232 0
-288 296 232 0
-281 -337 -289 -225 0
-282 -338 -290 -226 0
-283 -339 -291 -227 0
-284 -340 -292 -228 0
-285 -341 -293 -229 0
-286 -342 -294 -230 0
-287 -343 -295 -231 0
-288 -344 -296 -232 0
-289 -462 0
-289 -463 0
-289 -464 0
-290 462 0
-290 -463 0
-290 -464 0
-291 -462 0
-291 463 0
-291 -464 0
-292 462 0
-292 463 0
-292 -464 0
-293 -462 0
-293 -463 0
-293 464 0
-294 462 0
-294 -463 0
-294 464 0
-295 -462 0
-295 463 0
-295 464 0
-296 462 0
-296 463 0
-296 464 0
-289 345 297 233 0
-289 345 297 281 0
-289 345 233 281 0
-289 297 233 281 0
-290 346 298 234 0
-290 346 298 282 0
-290 346 234 282 0
-290 298 234 282 0
-291 347 299 235 0
-291 347 299 283 0
-291 347 235 283 0
-291 299 235 283 0
-292 348 300 236 0
-292 348 300 284 0
-292 348 236 284 0
-292 300 236 284 0
-293 349 301 237 0
-293 349 301 285 0
-293 349 237 285 0
-293 301 237 285 0
-294 350 302 238 0
-294 350 302 286 0
-294 350 238 286 0
-294 302 238 286 0
-295 351 303 239 0
-295 351 303 287 0
-295 351 239 287 0
-295 303 239 287 0
-296 352 304 240 0
-296 352 304 288 0
-296 352 240 288 0
-296 304 240 288 0
-289 -345 -297 -233 0
-289 -345 -297 -281 0
-289 -345 -233 -281 0
-289 -297 -233 -281 0
-290 -346 -298 -234 0
-290 -346 -298 -282 0
-290 -346 -234 -282 0
-290 -298 -234 -282 0
-291 -347 -299 -235 0
-291 -347 -299 -283 0
-291 -347 -235 -283 0
-291 -299 -235 -283 0
-292 -348 -300 -236 0
-292 -348 -300 -284 0
-292 -348 -236 -284 0
-292 -300 -236 -284 0
-293 -349 -301 -237 0
-293 -349 -301 -285 0
-293 -349 -237 -285 0
-293 -301 -237 -285 0
-294 -350 -302 -238 0
-294 -350 -302 -286 0
-294 -350 -238 -286 0
-294 -302 -238 -286 0
-295 -351 -303 -239 0
-295 -351 -303 -287 0
-295 -351 -239 -287 0
-295 -303 -239 -287 0
-296 -352 -304 -240 0
-296 -352 -304 -288 0
-296 -352 -240 -288 0
-296 -304 -240 -288 0
-297 -465 0
-297 -466 0
-297 -467 0
-298 465 0
-298 -466 0
-298 -467 0
-299 -465 0
-299 466 0
-299 -467 0
-300 465 0
-300 466 0
-300 -467 0
-301 -465 0
-301 -466 0
-301 467 0
-302 465 0
-302 -466 0
-302 467 0
-303 -465 0
-303 466 0
-303 467 0
-304 465 0
-304 466 0
-304 467 0
-297 353 305 241 0
-297 353 305 289 0
-297 353 241 289 0
-297 305 241 289 0
-298 354 306 242 0
-298 354 306 290 0
-298 354 242 290 0
-298 306 242 290 0
-299 355 307 243 0
-299 355 307 291 0
-299 355 243 291 0
-299 307 243 291 0
-300 356 308 244 0
-300 356 308 292 0
-300 356 244 292 0
-300 308 244 292 0
-301 357 309 245 0
-301 357 309 293 0
-301 357 245 293 0
-301 309 245 293 0
-302 358 310 246 0
-302 358 310 294 0
-302 358 246 294 0
-302 310 246 294 0
-303 359 311 247 0
-303 359 311 295 0
-303 359 247 295 0
-303 311 247 295 0
-304 360 312 248 0
-304 360 312 296 0
-304 360 248 296 0
-304 312 248 296 0
-297 -353 -305 -241 0
-297 -353 -305 -289 0
-297 -353 -241 -289 0
-297 -305 -241 -289 0
-298 -354 -306 -242 0
-298 -354 -306 -290 0
-298 -354 -242 -290 0
-298 -306 -242 -290 0
-299 -355 -307 -243 0
-299 -355 -307 -291 0
-299 -355 -243 -291 0
-299 -307 -243 -291 0
-300 -356 -308 -244 0
-300 -356 -308 -292 0
-300 -356 -244 -292 0
-300 -308 -244 -292 0
-301 -357 -309 -245 0
-301 -357 -309 -293 0
-301 -357 -245 -293 0
-301 -309 -245 -293 0
-302 -358 -310 -246 0
-302 -358 -310 -294 0
-302 -358 -246 -294 0
-302 -310 -246 -294 0
-303 -359 -311 -247 0
-303 -359 -311 -295 0
-303 -359 -247 -295 0
-303 -311 -247 -295 0
-304 -360 -312 -248 0
-304 -360 -312 -296 0
-304 -360 -248 -296 0
-304 -312 -248 -296 0
-305 -468 0
-305 -469 0
-305 -470 0
-306 468 0
-306 -469 0
-306 -470 0
-307 -468 0
-307 469 0
-307 -470 0
-308 468 0
-308 469 0
-308 -470 0
-309 -468 0
-309 -469 0
-309 470 0
-310 468 0
-310 -469 0
-310 470 0
-311 -468 0
-311 469 0
-311 470 0
-312 468 0
-312 469 0
-312 470 0
-305 361 313 249 0
-305 361 313 297 0
-305 361 249 297 0
-305 313 249 297 0
-306 362 314 250 0
-306 362 314 298 0
-306 362 250 298 0
-306 314 250 298 0
-307 363 315 251 0
-307 363 315 299 0
-307 363 251 299 0
-307 315 251 299 0
-308 364 316 252 0
-308 364 316 300 0
-308 364 252 300 0
-308 316 252 300 0
-309 365 317 253 0
-309 365 317 301 0
-309 365 253 301 0
-309 317 253 301 0
-310 366 318 254 0
-310 366 318 302 0
-310 366 254 302 0
-310 318 254 302 0
-311 367 319 255 0
-311 367 319 303 0
-311 367 255 303 0
-311 319 255 303 0
-312 368 320 256 0
-312 368 320 304 0
-312 368 256 304 0
-312 320 256 304 0
-305 -361 -313 -249 0
-305 -361 -313 -297 0
-305 -361 -249 -297 0
-305 -313 -249 -297 0
-306 -362 -314 -250 0
-306 -362 -314 -298 0
-306 -362 -250 -298 0
-306 -314 -250 -298 0
-307 -363 -315 -251 0
-307 -363 -315 -299 0
-307 -363 -251 -299 0
-307 -315 -251 -299 0
-308 -364 -316 -252 0
-308 -364 -316 -300 0
-308 -364 -252 -300 0
-308 -316 -252 -300 0
-309 -365 -317 -253 0
-309 -365 -317 -301 0
-309 -365 -253 -301 0
-309 -317 -253 -301 0
-310 -366 -318 -254 0
-310 -366 -318 -302 0
-310 -366 -254 -302 0
-310 -318 -254 -302 0
-311 -367 -319 -255 0
-311 -367 -319 -303 0
-311 -367 -255 -303 0
-311 -319 -255 -303 0
-312 -368 -320 -256 0
-312 -368 -320 -304 0
-312 -368 -256 -304 0
-312 -320 -256 -304 0
-313 -471 0
-313 -472 0
-313 -473 0
-314 471 0
-314 -472 0
-314 -473 0
-315 -471 0
-315 472 0
-315 -473 0
-316 471 0
-316 472 0
-316 -473 0
-317 -471 0
-317 -472 0
-317 473 0
-318 471 0
-318 -472 0
-318 473 0
-319 -471 0
-319 472 0
-319 473 0
-320 471 0
-320 472 0
-320 473 0
-313 369 321 257 0
-313 369 321 305 0
-313 369 257 305 0
-313 321 257 305 0
-314 370 322 258 0
-314 370 322 306 0
-314 370 258 306 0
-314 322 258 306 0
-315 371 323 259 0
-315 371 323 307 0
-315 371 259 307 0
-315 323 259 307 0
-316 372 324 260 0
-316 372 324 308 0
-316 372 260 308 0
-316 324 260 308 0
-317 373 325 261 0
-317 373 325 309 0
-317 373 261 309 0
-317 325 261 309 0
-318 374 326 262 0
-318 374 326 310 0
-318 374 262 310 0
-318 326 262 310 0
-319 375 327 263 0
-319 375 327 311 0
-319 375 263 311 0
-319 327 263 311 0
-320 376 328 264 0
-320 376 328 312 0
-320 376 264 312 0
-320 328 264 312 0
-313 -369 -321 -257 0
-313 -369 -321 -305 0
-313 -369 -257 -305 0
-313 -321 -257 -305 0
-314 -370 -322 -258 0
-314 -370 -322 -306 0
-314 -370 -258 -306 0
-314 -322 -258 -306 0
-315 -371 -323 -259 0
-315 -371 -323 -307 0
-315 -371 -259 -307 0
-315 -323 -259 -307 0
-316 -372 -324 -260 0
-316 -372 -324 -308 0
-316 -372 -260 -308 0
-316 -324 -260 -308 0
-317 -373 -325 -261 0
-317 -373 -325 -309 0
-317 -373 -261 -309 0
-317 -325 -261 -309 0
-318 -374 -326 -262 0
-318 -374 -326 -310 0
-318 -374 -262 -310 0
-318 -326 -262 -310 0
-319 -375 -327 -263 0
-319 -375 -327 -311 0
-319 -375 -263 -311 0
-319 -327 -263 -311 0
-320 -376 -328 -264 0
-320 -376 -328 -312 0
-320 -376 -264 -312 0
-320 -328 -264 -312 0
-321 -474 0
-321 -475 0
-321 -476 0
-322 474 0
-322 -475 0
-322 -476 0
-323 -474 0
-323 475 0
-323 -476 0
-324 474 0
-324 475 0
-324 -476 0
-325 -474 0
-325 -475 0
-325 476 0
-326 474 0
-326 -475 0
-326 476 0
-327 -474 0
-327 475 0
-327 476 0
-328 474 0
-328 475 0
-328 476 0
-321 377 329 265 0
-321 377 329 313 0
-321 377 265 313 0
-321 329 265 313 0
-322 378 330 266 0
-322 378 330 314 0
-322 378 266 314 0
-322 330 266 314 0
-323 379 331 267 0
-323 379 331 315 0
-323 379 267 315 0
-323 331 267 315 0
-324 380 332 268 0
-324 380 332 316 0
-324 380 268 316 0
-324 332 268 316 0
-325 381 333 269 0
-325 381 333 317 0
-325 381 269 317 0
-325 333 269 317 0
-326 382 334 270 0
-326 382 334 318 0
-326 382 270 318 0
-326 334 270 318 0
-327 383 335 271 0
-327 383 335 319 0
-327 383 271 319 0
-327 335 271 319 0
-328 384 336 272 0
-328 384 336 320 0
-328 384 272 320 0
-328 336 272 320 0
-321 -377 -329 -265 0
-321 -377 -329 -313 0
-321 -377 -265 -313 0
-321 -329 -265 -313 0
-322 -378 -330 -266 0
-322 -378 -330 -314 0
-322 -378 -266 -314 0
-322 -330 -266 -314 0
-323 -379 -331 -267 0
-323 -379 -331 -315 0
-323 -379 -267 -315 0
-323 -331 -267 -315 0
-324 -380 -332 -268 0
-324 -380 -332 -316 0
-324 -380 -268 -316 0
-324 -332 -268 -316 0
-325 -381 -333 -269 0
-325 -381 -333 -317 0
-325 -381 -269 -317 0
-325 -333 -269 -317 0
-326 -382 -334 -270 0
-326 -382 -334 -318 0
-326 -382 -270 -318 0
-326 -334 -270 -318 0
-327 -383 -335 -271 0
-327 -383 -335 -319 0
-327 -383 -271 -319 0
-327 -335 -271 -319 0
-328 -384 -336 -272 0
-328 -384 -336 -320 0
-328 -384 -272 -320 0
-328 -336 -272 -320 0
-329 -477 0
-329 -478 0
-329 -479 0
-330 477 0
-330 -478 0
-330 -479 0
-331 -477 0
-331 478 0
-331 -479 0
-332 477 0
-332 478 0
-332 -479 0
-333 -477 0
-333 -478 0
-333 479 0
-334 477 0
-334 -478 0
-334 479 0
-335 -477 0
-335 478 0
-335 479 0
-336 477 0
-336 478 0
-336 479 0
-329 385 321 0
-329 385 273 0
-329 321 273 0
-330 386 322 0
-330 386 274 0
-330 322 274 0
-331 387 323 0
-331 387 275 0
-331 323 275 0
-332 388 324 0
-332 388 276 0
-332 324 276 0
-333 389 325 0
-333 389 277 0
-333 325 277 0
-334 390 326 0
-334 390 278 0
-334 326 278 0
-335 391 327 0
-335 391 279 0
-335 327 279 0
-336 392 328 0
-336 392 280 0
-336 328 280 0
-329 -385 -321 -273 0
-330 -386 -322 -274 0
-331 -387 -323 -275 0
-332 -388 -324 -276 0
-333 -389 -325 -277 0
-334 -390 -326 -278 0
-335 -391 -327 -279 0
-336 -392 -328 -280 0
338 0
-337 0
-339 0
-340 0
-341 0
-342 0
-343 0
-344 0
282 346 0
-282 -346 0
352 0
-345 0
-346 0
-347 0
-348 0
-349 0
-350 0
-351 0
296 360 344 0
-296 -360 0
-296 -344 0
-360 -344 0
-353 -480 0
-353 -481 0
-353 -482 0
-354 480 0
-354 -481 0
-354 -482 0
-355 -480 0
-355 481 0
-355 -482 0
-356 480 0
-356 481 0
-356 -482 0
-357 -480 0
-357 -481 0
-357 482 0
-358 480 0
-358 -481 0
-358 482 0
-359 -480 0
-359 481 0
-359 482 0
-360 480 0
-360 481 0
-360 482 0
-353 297 361 0
-353 297 345 0
-353 361 345 0
-354 298 362 0
-354 298 346 0
-354 362 346 0
-355 299 363 0
-355 299 347 0
-355 363 347 0
-356 300 364 0
-356 300 348 0
-356 364 348 0
-357 301 365 0
-357 301 349 0
-357 365 349 0
-358 302 366 0
-358 302 350 0
-358 366 350 0
-359 303 367 0
-359 303 351 0
-359 367 351 0
-360 304 368 0
-360 304 352 0
-360 368 352 0
-353 -297 -361 -345 0
-354 -298 -362 -346 0
-355 -299 -363 -347 0
-356 -300 -364 -348 0
-357 -301 -365 -349 0
-358 -302 -366 -350 0
-359 -303 -367 -351 0
-360 -304 -368 -352 0
-361 -483 0
-361 -484 0
-361 -485 0
-362 483 0
-362 -484 0
-362 -485 0
-363 -483 0
-363 484 0
-363 -485 0
-364 483 0
-364 484 0
-364 -485 0
-365 -483 0
-365 -484 0
-365 485 0
-366 483 0
-366 -484 0
-366 485 0
-367 -483 0
-367 484 0
-367 485 0
-368 483 0
-368 484 0
-368 485 0
-361 305 369 0
-361 305 353 0
-361 369 353 0
-362 306 370 0
-362 306 354 0
-362 370 354 0
-363 307 371 0
-363 307 355 0
-363 371 355 0
-364 308 372 0
-364 308 356 0
-364 372 356 0
-365 309 373 0
-365 309 357 0
-365 373 357 0
-366 310 374 0
-366 310 358 0
-366 374 358 0
-367 311 375 0
-367 311 359 0
-367 375 359 0
-368 312 376 0
-368 312 360 0
-368 376 360 0
-361 -305 -369 -353 0
-362 -306 -370 -354 0
-363 -307 -371 -355 0
-364 -308 -372 -356 0
-365 -309 -373 -357 0
-366 -310 -374 -358 0
-367 -311 -375 -359 0
-368 -312 -376 -360 0
-369 -486 0
-369 -487 0
-369 -488 0
-370 486 0
-370 -487 0
-370 -488 0
-371 -486 0
-371 487 0
-371 -488 0
-372 486 0
-372 487 0
-372 -488 0
-373 -486 0
-373 -487 0
-373 488 0
-374 486 0
-374 -487 0
-374 488 0
-375 -486 0
-375 487 0
-375 488 0
-376 486 0
-376 487 0
-376 488 0
-369 313 377 0
-369 313 361 0
-369 377 361 0
-370 314 378 0
-370 314 362 0
-370 378 362 0
-371 315 379 0
-371 315 363 0
-371 379 363 0
-372 316 380 0
-372 316 364 0
-372 380 364 0
-373 317 381 0
-373 317 365 0
-373 381 365 0
-374 318 382 0
-374 318 366 0
-374 382 366 0
-375 319 383 0
-375 319 367 0
-375 383 367 0
-376 320 384 0
-376 320 368 0
-376 384 368 0
-369 -313 -377 -361 0
-370 -314 -378 -362 0
-371 -315 -379 -363 0
-372 -316 -380 -364 0
-373 -317 -381 -365 0
-374 -318 -382 -366 0
-375 -319 -383 -367 0
-376 -320 -384 -368 0
-377 -489 0
-377 -490 0
-377 -491 0
-378 489 0
-378 -490 0
-378 -491 0
-379 -489 0
-379 490 0
-379 -491 0
-380 489 0
-380 490 0
-380 -491 0
-381 -489 0
-381 -490 0
-381 491 0
-382 489 0
-382 -490 0
-382 491 0
-383 -489 0
-383 490 0
-383 491 0
-384 489 0
-384 490 0
-384 491 0
-377 321 385 0
-377 321 369 0
-377 385 369 0
-378 322 386 0
-378 322 370 0
-378 386 370 0
-379 323 387 0
-379 323 371 0
-379 387 371 0
-380 324 388 0
-380 324 372 0
-380 388 372 0
-381 325 389 0
-381 325 373 0
-381 389 373 0
-382 326 390 0
-382 326 374 0
-382 390 374 0
-383 327 391 0
-383 327 375 0
-383 391 375 0
-384 328 392 0
-384 328 376 0
-384 392 376 0
-377 -321 -385 -369 0
-378 -322 -386 -370 0
-379 -323 -387 -371 0
-380 -324 -388 -372 0
-381 -325 -389 -373 0
-382 -326 -390 -374 0
-383 -327 -391 -375 0
-384 -328 -392 -376 0
392 0
-385 0
-386 0
-387 0
-388 0
-389 0
-390 0
-391 0
336 384 0
-336 -384 0
57 81 89 0
113 121 145 153 0
9 121 233 289 0
170 202 210 218 0
226 234 242 258 266 274 0
282 290 298 306 314 322 330 0
10 122 234 290 0
18 242 298 354 0
82 306 362 0
34 90 146 202 258 314 370 0
42 154 210 266 322 378 0
115 123 147 155 0
35 91 147 203 259 315 371 0
43 155 211 267 323 379 0
116 124 148 156 0
172 204 212 220 0
36 92 148 204 260 316 372 0
23 247 303 359 0
24 248 304 360 0
88 312 368 0
40 96 152 208 264 320 376 0
48 160 216 272 328 384 0